100
324 621 9 983 823 1000 264 200 55 194 25 692 366 816 761 350 167 348 31 649 190 149 889 438 947 981 664 250 148 247 737 512 298 18 352 393 70 250 296 416 494 566 850 295 95 304 217 576 477 322 95 752 624 624 703 855 36 189 472 701 505 506 308 244 874 983 500 468 129 602 212 626 279 468 866 312 535 319 486 868 493 965 408 455 645 502 672 291 14 423 65 249 598 691 910 679 556 345 477 289 
422 721 110 1082 924 1100 363 302 153 293 124 793 465 918 859 450 267 449 130 747 291 250 989 540 1046 1081 764 348 250 345 835 614 398 116 454 491 170 348 394 516 595 664 951 396 196 406 317 674 575 424 193 851 725 725 804 955 135 291 570 800 607 604 410 345 975 1084 600 570 227 701 313 727 380 569 965 413 635 421 585 967 592 1064 509 555 743 604 772 393 115 522 164 349 700 793 1012 779 656 444 577 389 
22765
